benchmarks/bfuzz0/1693146572236924805103749656324015185.smt2
(set-logic QF_FP)
(declare-const x0 (_ FloatingPoint 8 24))
(declare-const x1 (_ FloatingPoint 8 24))
(declare-const x2 (_ FloatingPoint 8 24))
(declare-const x3 (_ FloatingPoint 8 24))
(declare-const x4 (_ FloatingPoint 8 24))
(declare-const x5 (_ FloatingPoint 8 24))
(declare-const x6 (_ FloatingPoint 8 24))
(declare-const x7 (_ FloatingPoint 8 24))
(declare-const x8 (_ FloatingPoint 8 24))
(declare-const x9 (_ FloatingPoint 8 24))
(declare-const x10 (_ FloatingPoint 8 24))
(assert (fp.gt (fp.neg (fp.sub RNE x0 x4)) (fp.mul RNE (fp.sub RNE x6 x1) (fp.sub RNE x10 x8))))
(assert (fp.eq (fp.sub RNE (fp.add RNE x2 x4) (fp.add RNE x7 x9)) (fp.sub RNE (fp.neg x1) (fp.add RNE x2 x0))))
(assert (fp.geq (fp.add RNE (fp.div RNE x5 x9) (fp.mul RNE x2 x0)) (fp.div RNE (fp.sub RNE x9 x0) (fp.sub RNE x6 x4))))
(check-sat)
