db/data/1693146572236924805103749656324015185.z3.out
sat
-------------------
21.612951151
